
Gurobi 5.6.0 (win64) logging started 12/17/14 15:35:43


Gurobi 5.6.0 (win64) logging started 12/17/14 15:35:54


Gurobi 5.6.0 (win64) logging started 12/17/14 15:36:19


Gurobi 5.6.0 (win64) logging started 12/17/14 15:36:49


Gurobi 5.6.0 (win64) logging started 12/17/14 15:37:16


Gurobi 5.6.0 (win64) logging started 12/17/14 15:37:53


Gurobi 5.6.0 (win64) logging started 12/17/14 15:38:21


Gurobi 5.6.0 (win64) logging started 12/17/14 15:38:46

